14 6
127 210 243 333 135 318 63 119 159 16 141 176 380 308
0 66 17 386 349 94 135 350 33 85 390 367 113 222 235
303 0 356 309 173 48 271 75 46 338 99 285 212 209 274
370 286 0 11 95 317 325 110 210 115 322 368 149 198 214
329 239 128 0 361 170 378 220 66 49 66 334 288 132 316
322 3 347 336 0 225 122 106 5 113 234 92 56 388 359
235 361 48 162 12 0 242 159 143 184 388 108 146 100 303
206 134 290 254 290 105 0 192 93 400 23 398 233 96 338
302 370 341 379 68 303 167 0 95 269 126 255 289 380 166
299 16 206 251 321 165 303 189 0 208 267 22 382 354 43
315 270 95 354 217 165 27 242 143 0 92 334 194 240 216
132 227 58 4 347 32 132 57 42 192 0 256 221 66 332
208 38 28 247 244 137 193 191 146 388 313 0 175 399 212
283 238 345 99 355 88 39 177 1 102 280 14 0 318 124
72 306 378 256 17 57 97 290 30 30 28 332 235 0 3
339 151 248 74 16 71 156 36 191 196 22 67 17 39 0